data/solutions/recovery/degenerate/moderate/flexible/degenerate_moderate_instance1/53.sol
Elapsed time: 0.08
Upper bound: 237309.0
Planning weighted value: 1667891.0
C[0]=237309.0
C[1]=237059.0
C[2]=236768.0
y[0]=2
y[1]=1
y[2]=2
y[3]=0
y[4]=1
y[5]=1
y[6]=1
y[7]=2
y[8]=0
y[9]=2
y[10]=1
y[11]=1
y[12]=0
y[13]=2
y[14]=0
y[15]=1
y[16]=0
y[17]=1
y[18]=0
y[19]=2
y[20]=0
y[21]=0
