data/solutions/recovery/degenerate/moderate/flexible/degenerate_moderate_instance1/53.log

Log started (V12.6.3.0) Sat Apr 21 11:02:02 2018

New value for default parallel thread count: 1

Problem '/tmp/tmpUNSIIO.pyomo.lp' read.
Read time = 0.00 sec. (0.02 ticks)

Problem name         : /tmp/tmpUNSIIO.pyomo.lp
Objective sense      : Minimize
Variables            :      71  [Nneg: 1,  Binary: 66,  General Integer: 4]
Objective nonzeros   :       1
Linear constraints   :      51  [Less: 25,  Equal: 26]
  Nonzeros           :    1019
  RHS nonzeros       :      45

Variables            : Min LB: 0.000000         Max UB: 1.000000       
Objective nonzeros   : Min   : 1.000000         Max   : 1.000000       
Linear constraints   :
  Nonzeros           : Min   : 1.000000         Max   : 93707.00       
  RHS nonzeros       : Min   : 1.000000         Max   : 3.000000       
Tried aggregator 2 times.
MIP Presolve eliminated 22 rows and 3 columns.
Aggregator did 4 substitutions.
Reduced MIP has 25 rows, 64 columns, and 167 nonzeros.
Reduced MIP has 63 binaries, 1 generals, 0 SOSs, and 0 indicators.
Presolve time = 0.00 sec. (0.42 ticks)
Found incumbent of value 711136.000000 after 0.00 sec. (0.63 ticks)
Probing time = 0.00 sec. (0.04 ticks)
Cover probing fixed 0 vars, tightened 6 bounds.
Tried aggregator 1 time.
Reduced MIP has 25 rows, 64 columns, and 167 nonzeros.
Reduced MIP has 63 binaries, 1 generals, 0 SOSs, and 0 indicators.
Presolve time = 0.00 sec. (0.10 ticks)
Probing time = 0.00 sec. (0.03 ticks)
Clique table members: 21.
MIP emphasis: balance optimality and feasibility.
MIP search method: dynamic search.
Parallel mode: none, using 1 thread.
Root relaxation solution time = 0.00 sec. (0.05 ticks)

        Nodes                                         Cuts/
   Node  Left     Objective  IInf  Best Integer    Best Bound    ItCnt     Gap

*     0+    0                       711136.0000    93707.0000            86.82%
      0     0   237045.3333     5   711136.0000   237045.3333        4   66.67%
*     0+    0                       268445.0000   237045.3333            11.70%
      0     0   237046.0000     6   268445.0000      Fract: 2       12   11.70%
*     0+    0                       242795.0000   237046.0000             2.37%
      0     0   237046.0000     8   242795.0000       Cuts: 6       23    2.37%
*     0+    0                       242164.0000   237046.0000             2.11%
      0     2   237046.0000     8   242164.0000   237046.0000       23    2.11%
Elapsed time = 0.00 sec. (2.01 ticks, tree = 0.01 MB, solutions = 3)
*    10     7      integral     0   241439.0000   237046.0000       52    1.82%
*    18    11      integral     0   239604.0000   237046.0000       92    1.07%
*    60    15      integral     0   238932.0000   237046.0000      194    0.79%
*   118    25      integral     0   238021.0000   237046.0000      369    0.41%
*   170+    8                       237672.0000   237046.0000             0.26%
*   590   109      integral     0   237585.0000   237046.0000     2117    0.23%
*   693    73      integral     0   237309.0000   237046.0000     2492    0.11%

Cover cuts applied:  40
Mixed integer rounding cuts applied:  3

Root node processing (before b&c):
  Real time             =    0.00 sec. (2.01 ticks)
Sequential b&c:
  Real time             =    0.04 sec. (29.63 ticks)
                          ------------
Total (root+branch&cut) =    0.05 sec. (31.64 ticks)

Solution pool: 10 solutions saved.

MIP - Integer optimal solution:  Objective =  2.3730900000e+05
Solution time =    0.05 sec.  Iterations = 2848  Nodes = 834
Deterministic time = 31.64 ticks  (685.16 ticks/sec)


Incumbent solution written to file '/tmp/tmpuXv_CB.cplex.sol'.
